NAME: S051D4_20
COMMENT: 1624.55
VEHICLE: 27
TIME: 339.2304
DIMENSION: 51
CAPACITY: 160
DELIVERY_SECTION
0 0 0
1 1 32
2 1 8
3 1 1.6
4 1 1.4
5 2 32
6 2 8
7 2 1.6
8 2 1.4
9 3 16
10 3 8
11 3 1
12 4 32
13 4 32
14 4 32
15 4 32
16 4 8
17 4 1.6
18 4 1.6
19 4 1.6
20 4 1.6
21 4 0.6
22 5 32
23 5 1.6
24 5 1.4
25 6 32
26 6 32
27 6 16
28 6 8
29 6 1
30 7 16
31 7 8
32 7 1.6
33 7 1.4
34 8 32
35 8 32
36 8 32
37 8 32
38 8 1.6
39 8 1.4
40 9 16
41 9 1.6
42 9 1.6
43 9 1.6
44 9 1.6
45 9 0.6
46 10 32
47 10 32
48 10 32
49 10 16
50 10 8
51 10 1.6
52 10 0.4
53 11 16
54 11 8
55 11 1.6
56 11 1.6
57 11 1.6
58 11 1.2
59 12 32
60 12 32
61 12 16
62 12 8
63 12 1.6
64 12 1.6
65 12 1.6
66 12 1.2
67 13 16
68 13 8
69 13 1
70 14 32
71 14 32
72 14 32
73 14 32
74 14 8
75 14 1.6
76 14 1.4
77 15 32
78 15 1.6
79 15 0.4
80 16 32
81 16 8
82 16 1.6
83 16 0.4
84 17 32
85 17 8
86 17 1.6
87 17 1.6
88 17 1.6
89 17 0.2
90 18 32
91 18 32
92 18 32
93 18 32
94 18 8
95 18 1.6
96 18 1.6
97 18 1.6
98 18 1.6
99 18 0.6
100 19 32
101 19 8
102 20 32
103 20 8
104 20 1.6
105 20 1.6
106 20 1.6
107 20 0.2
108 21 32
109 21 32
110 21 1.6
111 21 1.6
112 21 1.6
113 21 0.2
114 22 32
115 22 32
116 22 32
117 22 32
118 22 8
119 22 1
120 23 32
121 23 16
122 24 32
123 24 32
124 24 16
125 24 8
126 24 1.6
127 24 1.6
128 24 1.6
129 24 0.2
130 25 32
131 25 32
132 25 16
133 25 8
134 25 1.6
135 25 1.6
136 25 1.6
137 25 1.2
138 26 32
139 26 32
140 26 32
141 26 16
142 26 8
143 26 1.6
144 26 1.6
145 26 0.8
146 27 32
147 27 16
148 27 8
149 27 1.6
150 27 0.4
151 28 32
152 28 32
153 28 32
154 28 16
155 28 8
156 28 1.6
157 28 1.6
158 28 1.6
159 28 1.6
160 28 0.6
161 29 32
162 29 32
163 29 32
164 29 16
165 29 1.6
166 29 1.6
167 29 1.6
168 29 1.2
169 30 32
170 30 32
171 30 32
172 30 8
173 30 1.6
174 30 1.6
175 30 0.8
176 31 32
177 31 32
178 31 1.6
179 31 1.6
180 31 1.6
181 31 1.2
182 32 32
183 32 32
184 32 32
185 32 32
186 32 8
187 32 1.6
188 32 1.6
189 32 1.6
190 32 1.2
191 33 32
192 33 32
193 33 32
194 33 32
195 33 8
196 34 32
197 34 32
198 34 16
199 34 8
200 34 1.6
201 34 1.6
202 34 0.8
203 35 32
204 35 32
205 35 16
206 35 1.6
207 35 1.6
208 35 0.8
209 36 32
210 36 32
211 36 32
212 36 32
213 36 8
214 36 1.6
215 36 1.6
216 36 1.6
217 36 0.2
218 37 32
219 37 32
220 37 32
221 37 32
222 37 8
223 37 1.6
224 37 1.6
225 37 1.6
226 37 1.6
227 37 0.6
228 38 32
229 38 32
230 38 8
231 38 1.6
232 38 1.6
233 38 1.6
234 38 0.2
235 39 32
236 39 32
237 39 32
238 39 1.6
239 39 1.6
240 39 0.8
241 40 32
242 40 32
243 40 32
244 40 16
245 40 8
246 40 1.6
247 40 1.6
248 40 1.6
249 40 1.6
250 40 0.6
251 41 32
252 41 32
253 41 32
254 41 32
255 41 8
256 42 32
257 42 16
258 42 8
259 42 1.6
260 42 1.6
261 42 1.6
262 42 1.6
263 42 0.6
264 43 32
265 43 32
266 43 32
267 43 16
268 43 1.6
269 43 1.6
270 43 1.6
271 43 0.2
272 44 32
273 44 32
274 44 32
275 44 8
276 44 1.6
277 44 0.4
278 45 32
279 45 32
280 45 32
281 45 16
282 46 32
283 46 16
284 46 1.6
285 46 1.6
286 46 0.8
287 47 32
288 47 32
289 47 32
290 47 32
291 47 1.6
292 47 1.4
293 48 32
294 48 32
295 48 16
296 48 1
297 49 32
298 49 32
299 49 1.6
300 49 1.6
301 49 1.6
302 49 1.2
303 50 32
304 50 8
305 50 1.6
306 50 1.4
PICKUP_SECTION
NODE_SECTION
30 40

37 52

49 49

52 64

20 26

40 30

21 47

17 63

31 62

52 33

51 21

42 41

31 32

 5 25

12 42

36 16

52 41

27 23

17 33

13 13

57 58

62 42

42 57

16 57
 
8 52

 7 38

27 68

30 48

43 67

58 48

58 27

37 69

38 46

46 10

61 33

62 63

63 69

32 22

45 35

59 15

 5  6

10 17

21 10

 5 64

30 15

39 10

32 39

25 32

25 55

48 28

56 37
DISTANCE_SECTION
DEPOT_SECTION
0
EOF